c Reduced graph for R75_1gb_1 generated by Cyril Grelier
p edge 69 249
e 1 8
e 1 9
e 1 19
e 1 21
e 1 34
e 1 38
e 1 42
e 1 45
e 1 49
e 1 52
e 1 58
e 1 62
e 2 3
e 2 5
e 2 9
e 2 26
e 2 29
e 2 31
e 2 35
e 2 42
e 2 50
e 2 54
e 2 63
e 3 4
e 3 12
e 3 15
e 3 29
e 3 39
e 3 42
e 3 44
e 3 47
e 3 68
e 3 69
e 4 14
e 4 15
e 4 20
e 4 24
e 4 29
e 4 30
e 4 34
e 4 38
e 4 43
e 4 60
e 5 12
e 5 24
e 5 26
e 5 27
e 5 34
e 5 41
e 5 44
e 5 52
e 5 55
e 6 13
e 6 14
e 6 15
e 6 17
e 6 27
e 6 31
e 6 34
e 6 37
e 6 43
e 6 50
e 7 10
e 7 17
e 7 29
e 7 30
e 7 38
e 7 46
e 7 52
e 7 56
e 7 60
e 7 62
e 8 11
e 8 16
e 8 26
e 8 30
e 8 33
e 8 36
e 8 44
e 8 55
e 8 65
e 9 22
e 9 25
e 9 26
e 9 35
e 9 36
e 9 37
e 9 55
e 9 67
e 10 17
e 10 19
e 10 25
e 10 29
e 10 34
e 10 41
e 10 56
e 10 57
e 11 12
e 11 24
e 11 27
e 11 32
e 11 42
e 11 51
e 11 56
e 11 58
e 12 13
e 12 14
e 12 19
e 12 21
e 12 48
e 12 62
e 13 16
e 13 18
e 13 20
e 13 29
e 13 47
e 13 49
e 13 61
e 14 18
e 14 23
e 14 26
e 14 45
e 14 47
e 14 53
e 15 26
e 15 36
e 15 40
e 15 41
e 15 57
e 15 61
e 16 28
e 16 30
e 16 36
e 16 41
e 16 53
e 16 58
e 16 59
e 17 20
e 17 25
e 17 36
e 17 41
e 17 60
e 17 67
e 18 19
e 18 23
e 18 30
e 18 31
e 18 32
e 18 47
e 18 53
e 19 20
e 19 21
e 19 34
e 19 50
e 19 57
e 20 25
e 20 28
e 20 31
e 20 54
e 20 57
e 21 23
e 21 26
e 21 28
e 21 46
e 21 62
e 22 23
e 22 24
e 22 30
e 22 51
e 22 56
e 22 59
e 22 63
e 23 54
e 23 59
e 23 61
e 23 65
e 24 28
e 24 29
e 24 39
e 24 45
e 25 32
e 25 38
e 25 58
e 25 66
e 26 31
e 27 35
e 27 37
e 27 44
e 27 59
e 27 61
e 28 40
e 28 49
e 28 54
e 28 60
e 29 47
e 30 37
e 31 40
e 31 50
e 32 50
e 32 62
e 32 65
e 32 68
e 33 41
e 33 49
e 33 53
e 33 59
e 33 63
e 33 65
e 34 45
e 35 39
e 35 45
e 35 48
e 35 66
e 36 47
e 36 48
e 37 39
e 37 53
e 37 55
e 38 39
e 38 57
e 38 67
e 39 43
e 39 48
e 40 42
e 40 46
e 40 51
e 40 54
e 41 53
e 42 50
e 42 51
e 43 45
e 43 46
e 43 49
e 43 64
e 44 48
e 44 55
e 44 66
e 46 49
e 46 54
e 48 52
e 51 60
e 51 63
e 52 55
e 52 56
e 58 64
e 61 68
e 64 66
e 64 69
e 67 69
